269,705
580,719
858,753
644,520
554,533
396,498
227,637
200,651
171,406
505,648
625,761
441,406
356,355
141,406
269,107
586,219
829,383
921,406
891,406
654,353
469,194
427,152
624,424
609,458
746,820
745,605
975,555
1028,583
776,593
778,476
734,433
721,326
708,321
898,-21
695,494
694,432
663,463
